p wcnf 322 100 1
1 -1 13 
1 -2 14 
1 -3 15 
1 -4 16 
1 -5 17 
1 -6 18 
1 -7 19 
1 -8 20 
1 -9 21 
1 -10 22 
1 -11 23 
1 -12 24 
1 -25 1 
1 -26 1 
1 -27 1 
1 -28 1 
1 -29 1 
1 -30 1 
1 -31 1 
1 -32 1 
1 -33 1 
1 -34 1 
1 -35 1 
1 -36 1 
1 -25 37 
1 -25 38 
1 -25 39 
1 -25 40 
1 -25 41 
1 -25 42 
1 -25 43 
1 -25 44 
1 -25 45 
1 -25 46 
1 -25 47 
1 -26 38 
1 -26 39 
1 -26 40 
1 -26 41 
1 -26 42 
1 -26 43 
1 -26 44 
1 -26 45 
1 -26 46 
1 -26 47 
1 -26 48 
1 -27 39 
1 -27 40 
1 -27 41 
1 -27 42 
1 -27 43 
1 -27 44 
1 -27 45 
1 -27 46 
1 -27 47 
1 -27 48 
1 -27 49 
1 -28 40 
1 -28 41 
1 -28 42 
1 -28 43 
1 -28 44 
1 -28 45 
1 -28 46 
1 -28 47 
1 -28 48 
1 -28 49 
1 -28 50 
1 -29 41 
1 -29 42 
1 -29 43 
1 -29 44 
1 -29 45 
1 -29 46 
1 -29 47 
1 -29 48 
1 -29 49 
1 -29 50 
1 -29 51 
1 -30 42 
1 -30 43 
1 -30 44 
1 -30 45 
1 -30 46 
1 -30 47 
1 -30 48 
1 -30 49 
1 -30 50 
1 -30 51 
1 -30 52 
1 -31 43 
1 -31 44 
1 -31 45 
1 -31 46 
1 -31 47 
1 -31 48 
1 -31 49 
1 -31 50 
1 -31 51 
1 -31 52 
1 -31 53 
1 -32 44 
1 -32 45 
1 -32 46 
1 -32 47 
1 -32 48 
1 -32 49 
1 -32 50 
1 -32 51 
1 -32 52 
1 -32 53 
1 -32 54 
1 -33 45 
1 -33 46 
1 -33 47 
1 -33 48 
1 -33 49 
1 -33 50 
1 -33 51 
1 -33 52 
1 -33 53 
1 -33 54 
1 -33 55 
1 -34 46 
1 -34 47 
1 -34 48 
1 -34 49 
1 -34 50 
1 -34 51 
1 -34 52 
1 -34 53 
1 -34 54 
1 -34 55 
1 -34 56 
1 -35 47 
1 -35 48 
1 -35 49 
1 -35 50 
1 -35 51 
1 -35 52 
1 -35 53 
1 -35 54 
1 -35 55 
1 -35 56 
1 -35 57 
1 -36 48 
1 -36 49 
1 -36 50 
1 -36 51 
1 -36 52 
1 -36 53 
1 -36 54 
1 -36 55 
1 -36 56 
1 -36 57 
1 -36 58 
1 -59 1 
1 -60 1 
1 -61 1 
1 -62 1 
1 -63 1 
1 -64 1 
1 -65 1 
1 -66 1 
1 -67 1 
1 -68 1 
1 -69 1 
1 -70 1 
1 -59 71 
1 -59 72 
1 -59 73 
1 -59 74 
1 -59 75 
1 -59 76 
1 -59 77 
1 -59 78 
1 -59 79 
1 -59 80 
1 -59 81 
1 -59 82 
1 -60 72 
1 -60 73 
1 -60 74 
1 -60 75 
1 -60 76 
1 -60 77 
1 -60 78 
1 -60 79 
1 -60 80 
1 -60 81 
1 -60 82 
1 -60 83 
1 -61 73 
1 -61 74 
1 -61 75 
1 -61 76 
1 -61 77 
1 -61 78 
1 -61 79 
1 -61 80 
1 -61 81 
1 -61 82 
1 -61 83 
1 -61 84 
1 -62 74 
1 -62 75 
1 -62 76 
1 -62 77 
1 -62 78 
1 -62 79 
1 -62 80 
1 -62 81 
1 -62 82 
1 -62 83 
1 -62 84 
1 -62 85 
1 -63 75 
1 -63 76 
1 -63 77 
1 -63 78 
1 -63 79 
1 -63 80 
1 -63 81 
1 -63 82 
1 -63 83 
1 -63 84 
1 -63 85 
1 -63 86 
1 -64 76 
1 -64 77 
1 -64 78 
1 -64 79 
1 -64 80 
1 -64 81 
1 -64 82 
1 -64 83 
1 -64 84 
1 -64 85 
1 -64 86 
1 -64 87 
1 -65 77 
1 -65 78 
1 -65 79 
1 -65 80 
1 -65 81 
1 -65 82 
1 -65 83 
1 -65 84 
1 -65 85 
1 -65 86 
1 -65 87 
1 -65 88 
1 -66 78 
1 -66 79 
1 -66 80 
1 -66 81 
1 -66 82 
1 -66 83 
1 -66 84 
1 -66 85 
1 -66 86 
1 -66 87 
1 -66 88 
1 -66 89 
1 -67 79 
1 -67 80 
1 -67 81 
1 -67 82 
1 -67 83 
1 -67 84 
1 -67 85 
1 -67 86 
1 -67 87 
1 -67 88 
1 -67 89 
1 -67 90 
1 -68 80 
1 -68 81 
1 -68 82 
1 -68 83 
1 -68 84 
1 -68 85 
1 -68 86 
1 -68 87 
1 -68 88 
1 -68 89 
1 -68 90 
1 -68 91 
1 -69 81 
1 -69 82 
1 -69 83 
1 -69 84 
1 -69 85 
1 -69 86 
1 -69 87 
1 -69 88 
1 -69 89 
1 -69 90 
1 -69 91 
1 -69 92 
1 -70 82 
1 -70 83 
1 -70 84 
1 -70 85 
1 -70 86 
1 -70 87 
1 -70 88 
1 -70 89 
1 -70 90 
1 -70 91 
1 -70 92 
1 -70 93 
1 -94 25 
1 -95 25 
1 -94 96 
1 -94 97 
1 -95 97 
1 -95 98 
1 -99 59 94 
1 -99 100 
1 25 26 27 28 29 30 31 32 33 34 35 36 59 60 61 62 63 64 65 66 67 68 69 70 
1 25 26 27 28 29 30 31 32 33 34 35 36 59 60 61 62 63 64 65 66 67 68 69 70 94 95 
1 100 
